Version identifier: 22.1.0.0 | 2022-03-09 | 1a383f8ce
CPXPARAM_Threads                                 1
CPXPARAM_MIP_Strategy_VariableSelect             3
CPXPARAM_TimeLimit                               600
Retaining values of one MIP start for possible repair.
Tried aggregator 2 times.
MIP Presolve eliminated 44 rows and 1 columns.
MIP Presolve added 36 rows and 9 columns.
MIP Presolve modified 5 coefficients.
Aggregator did 9 substitutions.
Reduced MIP has 1809 rows, 7800 columns, and 147896 nonzeros.
Reduced MIP has 7800 binaries, 0 generals, 0 SOSs, and 0 indicators.
Presolve time = 0.16 sec. (178.24 ticks)
Found incumbent of value 1.000000 after 0.21 sec. (204.76 ticks)
Probing time = 0.03 sec. (29.04 ticks)
Tried aggregator 1 time.
Detecting symmetries...
Reduced MIP has 1809 rows, 7800 columns, and 147896 nonzeros.
Reduced MIP has 7800 binaries, 0 generals, 0 SOSs, and 0 indicators.
Presolve time = 0.11 sec. (139.90 ticks)
Probing time = 0.03 sec. (29.04 ticks)
Clique table members: 302.
MIP emphasis: balance optimality and feasibility.
MIP search method: dynamic search.
Parallel mode: none, using 1 thread.
Root relaxation solution time = 0.10 sec. (116.61 ticks)

        Nodes                                         Cuts/
   Node  Left     Objective  IInf  Best Integer    Best Bound    ItCnt     Gap

*     0+    0                            1.0000    45150.0000              --- 
      0     0      300.0000   128        1.0000      300.0000     1071     --- 
*     0+    0                          300.0000      300.0000             0.00%
      0     0        cutoff            300.0000      300.0000     1071    0.00%
Elapsed time = 0.78 sec. (734.03 ticks, tree = 0.01 MB, solutions = 2)

Root node processing (before b&c):
  Real time             =    0.78 sec. (734.31 ticks)
Sequential b&c:
  Real time             =    0.00 sec. (0.00 ticks)
                          ------------
Total (root+branch&cut) =    0.78 sec. (734.31 ticks)
Primal:	300
Dual:	300
Status:	Optimal
Time:	0.82
Sequence:
	3
	9
	24
	21
	16
	21
	21
	3
	21
	22
	24
	16
	5
	21
	16
	21
	21
	16
	16
	16
	24
	15
	16
	14
	6
	14
	14
	15
	17
	3
	16
	12
	14
	1
	3
	4
	4
	4
	4
	13
	11
	11
	3
	12
	11
	20
	9
	21
	6
	21
	6
	17
	17
	13
	13
	21
	13
	13
	5
	20
	13
	13
	10
	6
	22
	0
	6
	22
	22
	22
	17
	0
	4
	4
	4
	4
	3
	3
	3
	4
	3
	3
	3
	7
	3
	5
	14
	16
	15
	0
	0
	20
	24
	2
	16
	10
	0
	6
	9
	7
	19
	5
	12
	13
	2
	9
	23
	7
	18
	24
	7
	3
	18
	12
	6
	10
	0
	9
	9
	9
	20
	17
	21
	20
	12
	1
	15
	16
	10
	10
	3
	5
	4
	10
	10
	15
	21
	23
	3
	6
	14
	5
	9
	23
	22
	5
	16
	18
	12
	23
	20
	11
	3
	1
	16
	20
	20
	20
	12
	17
	12
	12
	0
	12
	13
	13
	4
	22
	0
	13
	6
	15
	0
	11
	16
	22
	6
	5
	5
	3
	5
	5
	16
	18
	4
	0
	6
	6
	6
	9
	6
	9
	20
	1
	6
	23
	6
	9
	2
	9
	13
	4
	13
	9
	20
	15
	23
	3
	6
	6
	3
	6
	6
	3
	6
	6
	6
	6
	12
	3
	3
	17
	8
	8
	8
	17
	8
	8
	8
	0
	17
	8
	8
	8
	16
	3
	3
	0
	21
	6
	9
	3
	12
	21
	0
	20
	0
	22
	0
	0
	20
	20
	16
	12
	4
	1
	3
	1
	4
	20
	14
	0
	6
	12
	1
	1
	16
	16
	1
	1
	15
	0
	1
	3
	0
	0
	16
	6
	1
	11
	16
	1
	2
	20
	4
	6
	6
	6
	0
	6
	11
	20
	20
	21
	7
	6
	12
	8
	24
	5
